\Problem name: compact

Minimize
OBJROW: C
Subject To
ord(0,1):  - x(0,2) + x(0,3) >= 2
ord(0,2):  x(0,0) - x(0,3) >= 5
ord(0,3):  - x(0,0) + x(0,1) >= 4
ord(1,1):  x(1,2) - x(1,3) >= 8
ord(1,2):  x(1,1) - x(1,2) >= 3
ord(1,3):  x(1,0) - x(1,1) >= 9
ord(2,1):  x(2,2) - x(2,3) >= 7
ord(2,2):  x(2,0) - x(2,2) >= 6
ord(2,3):  - x(2,0) + x(2,1) >= 9
ord(3,1):  x(3,0) - x(3,2) >= 6
ord(3,2):  - x(3,0) + x(3,3) >= 3
ord(3,3):  x(3,1) - x(3,3) >= 10
ord(4,1):  - x(4,1) + x(4,2) >= 9
ord(4,2):  - x(4,2) + x(4,3) >= 8
ord(4,3):  x(4,0) - x(4,3) >= 7
triangle2(0,1,0):  y(0,1,0) + y(1,0,0) = 1
triangle2(0,1,1):  y(0,1,1) + y(1,0,1) = 1
triangle2(0,1,2):  y(0,1,2) + y(1,0,2) = 1
triangle2(0,1,3):  y(0,1,3) + y(1,0,3) = 1
triangle2(0,2,0):  y(0,2,0) + y(2,0,0) = 1
triangle2(0,2,1):  y(0,2,1) + y(2,0,1) = 1
triangle2(0,2,2):  y(0,2,2) + y(2,0,2) = 1
triangle2(0,2,3):  y(0,2,3) + y(2,0,3) = 1
triangle2(0,3,0):  y(0,3,0) + y(3,0,0) = 1
triangle2(0,3,1):  y(0,3,1) + y(3,0,1) = 1
triangle2(0,3,2):  y(0,3,2) + y(3,0,2) = 1
triangle2(0,3,3):  y(0,3,3) + y(3,0,3) = 1
triangle2(0,4,0):  y(0,4,0) + y(4,0,0) = 1
triangle2(0,4,1):  y(0,4,1) + y(4,0,1) = 1
triangle2(0,4,2):  y(0,4,2) + y(4,0,2) = 1
triangle2(0,4,3):  y(0,4,3) + y(4,0,3) = 1
triangle2(1,2,0):  y(1,2,0) + y(2,1,0) = 1
triangle2(1,2,1):  y(1,2,1) + y(2,1,1) = 1
triangle2(1,2,2):  y(1,2,2) + y(2,1,2) = 1
triangle2(1,2,3):  y(1,2,3) + y(2,1,3) = 1
triangle2(1,3,0):  y(1,3,0) + y(3,1,0) = 1
triangle2(1,3,1):  y(1,3,1) + y(3,1,1) = 1
triangle2(1,3,2):  y(1,3,2) + y(3,1,2) = 1
triangle2(1,3,3):  y(1,3,3) + y(3,1,3) = 1
triangle2(1,4,0):  y(1,4,0) + y(4,1,0) = 1
triangle2(1,4,1):  y(1,4,1) + y(4,1,1) = 1
triangle2(1,4,2):  y(1,4,2) + y(4,1,2) = 1
triangle2(1,4,3):  y(1,4,3) + y(4,1,3) = 1
triangle2(2,3,0):  y(2,3,0) + y(3,2,0) = 1
triangle2(2,3,1):  y(2,3,1) + y(3,2,1) = 1
triangle2(2,3,2):  y(2,3,2) + y(3,2,2) = 1
triangle2(2,3,3):  y(2,3,3) + y(3,2,3) = 1
triangle2(2,4,0):  y(2,4,0) + y(4,2,0) = 1
triangle2(2,4,1):  y(2,4,1) + y(4,2,1) = 1
triangle2(2,4,2):  y(2,4,2) + y(4,2,2) = 1
triangle2(2,4,3):  y(2,4,3) + y(4,2,3) = 1
triangle2(3,4,0):  y(3,4,0) + y(4,3,0) = 1
triangle2(3,4,1):  y(3,4,1) + y(4,3,1) = 1
triangle2(3,4,2):  y(3,4,2) + y(4,3,2) = 1
triangle2(3,4,3):  y(3,4,3) + y(4,3,3) = 1
MCLinV(0,1,0):  x(0,0) - v(0,1,0) - x(1,0) = 9
MCLinV(1,0,0):  - x(0,0) - v(1,0,0) + x(1,0) = 4
MCLin1(0,1,0):  u(0,1,0) >= -0
MCLin2(0,1,0):  -126 y(1,0,0) - u(0,1,0) <= -0
MCLin3(0,1,0):  96 y(1,0,0) + v(0,1,0) - u(0,1,0) <= 96
MCLin4(0,1,0):  96 y(1,0,0) - u(0,1,0) >= -0
MCLin5(0,1,0):  -126 y(1,0,0) + v(0,1,0) - u(0,1,0) >= -126
MCLin6(1,0,0):  u(1,0,0) >= -0
MCLin7(1,0,0):  -109 y(0,1,0) - u(1,0,0) <= -0
MCLin8(1,0,0):  113 y(0,1,0) + v(1,0,0) - u(1,0,0) <= 113
MCLin9(1,0,0):  113 y(0,1,0) - u(1,0,0) >= -0
MCLin10(1,0,0):  -109 y(0,1,0) + v(1,0,0) - u(1,0,0) >= -109
MCLinV(0,1,1):  x(0,1) - v(0,1,1) - x(1,1) = 9
MCLinV(1,0,1):  - x(0,1) - v(1,0,1) + x(1,1) = 4
MCLin1(0,1,1):  u(0,1,1) >= -0
MCLin2(0,1,1):  -113 y(1,0,1) - u(0,1,1) <= -0
MCLin3(0,1,1):  109 y(1,0,1) + v(0,1,1) - u(0,1,1) <= 109
MCLin4(0,1,1):  109 y(1,0,1) - u(0,1,1) >= -0
MCLin5(0,1,1):  -113 y(1,0,1) + v(0,1,1) - u(0,1,1) >= -113
MCLin6(1,0,1):  u(1,0,1) >= -0
MCLin7(1,0,1):  -122 y(0,1,1) - u(1,0,1) <= -0
MCLin8(1,0,1):  100 y(0,1,1) + v(1,0,1) - u(1,0,1) <= 100
MCLin9(1,0,1):  100 y(0,1,1) - u(1,0,1) >= -0
MCLin10(1,0,1):  -122 y(0,1,1) + v(1,0,1) - u(1,0,1) >= -122
MCLinV(0,1,2):  x(0,2) - v(0,1,2) - x(1,2) = 3
MCLinV(1,0,2):  - x(0,2) - v(1,0,2) + x(1,2) = 2
MCLin1(0,1,2):  u(0,1,2) >= -0
MCLin2(0,1,2):  -115 y(1,0,2) - u(0,1,2) <= -0
MCLin3(0,1,2):  107 y(1,0,2) + v(0,1,2) - u(0,1,2) <= 107
MCLin4(0,1,2):  107 y(1,0,2) - u(0,1,2) >= -0
MCLin5(0,1,2):  -115 y(1,0,2) + v(0,1,2) - u(0,1,2) >= -115
MCLin6(1,0,2):  u(1,0,2) >= -0
MCLin7(1,0,2):  -112 y(0,1,2) - u(1,0,2) <= -0
MCLin8(1,0,2):  110 y(0,1,2) + v(1,0,2) - u(1,0,2) <= 110
MCLin9(1,0,2):  110 y(0,1,2) - u(1,0,2) >= -0
MCLin10(1,0,2):  -112 y(0,1,2) + v(1,0,2) - u(1,0,2) >= -112
MCLinV(0,1,3):  x(0,3) - v(0,1,3) - x(1,3) = 8
MCLinV(1,0,3):  - x(0,3) - v(1,0,3) + x(1,3) = 5
MCLin1(0,1,3):  u(0,1,3) >= -0
MCLin2(0,1,3):  -110 y(1,0,3) - u(0,1,3) <= -0
MCLin3(0,1,3):  112 y(1,0,3) + v(0,1,3) - u(0,1,3) <= 112
MCLin4(0,1,3):  112 y(1,0,3) - u(0,1,3) >= -0
MCLin5(0,1,3):  -110 y(1,0,3) + v(0,1,3) - u(0,1,3) >= -110
MCLin6(1,0,3):  u(1,0,3) >= -0
MCLin7(1,0,3):  -125 y(0,1,3) - u(1,0,3) <= -0
MCLin8(1,0,3):  97 y(0,1,3) + v(1,0,3) - u(1,0,3) <= 97
MCLin9(1,0,3):  97 y(0,1,3) - u(1,0,3) >= -0
MCLin10(1,0,3):  -125 y(0,1,3) + v(1,0,3) - u(1,0,3) >= -125
MCLinV(0,2,0):  x(0,0) - v(0,2,0) - x(2,0) = 9
MCLinV(2,0,0):  - x(0,0) - v(2,0,0) + x(2,0) = 4
MCLin1(0,2,0):  u(0,2,0) >= -0
MCLin2(0,2,0):  -117 y(2,0,0) - u(0,2,0) <= -0
MCLin3(0,2,0):  103 y(2,0,0) + v(0,2,0) - u(0,2,0) <= 103
MCLin4(0,2,0):  103 y(2,0,0) - u(0,2,0) >= -0
MCLin5(0,2,0):  -117 y(2,0,0) + v(0,2,0) - u(0,2,0) >= -117
MCLin6(2,0,0):  u(2,0,0) >= -0
MCLin7(2,0,0):  -116 y(0,2,0) - u(2,0,0) <= -0
MCLin8(2,0,0):  104 y(0,2,0) + v(2,0,0) - u(2,0,0) <= 104
MCLin9(2,0,0):  104 y(0,2,0) - u(2,0,0) >= -0
MCLin10(2,0,0):  -116 y(0,2,0) + v(2,0,0) - u(2,0,0) >= -116
MCLinV(0,2,1):  x(0,1) - v(0,2,1) - x(2,1) = 9
MCLinV(2,0,1):  - x(0,1) - v(2,0,1) + x(2,1) = 4
MCLin1(0,2,1):  u(0,2,1) >= -0
MCLin2(0,2,1):  -122 y(2,0,1) - u(0,2,1) <= -0
MCLin3(0,2,1):  98 y(2,0,1) + v(0,2,1) - u(0,2,1) <= 98
MCLin4(0,2,1):  98 y(2,0,1) - u(0,2,1) >= -0
MCLin5(0,2,1):  -122 y(2,0,1) + v(0,2,1) - u(0,2,1) >= -122
MCLin6(2,0,1):  u(2,0,1) >= -0
MCLin7(2,0,1):  -111 y(0,2,1) - u(2,0,1) <= -0
MCLin8(2,0,1):  109 y(0,2,1) + v(2,0,1) - u(2,0,1) <= 109
MCLin9(2,0,1):  109 y(0,2,1) - u(2,0,1) >= -0
MCLin10(2,0,1):  -111 y(0,2,1) + v(2,0,1) - u(2,0,1) >= -111
MCLinV(0,2,2):  x(0,2) - v(0,2,2) - x(2,2) = 6
MCLinV(2,0,2):  - x(0,2) - v(2,0,2) + x(2,2) = 2
MCLin1(0,2,2):  u(0,2,2) >= -0
MCLin2(0,2,2):  -115 y(2,0,2) - u(0,2,2) <= -0
MCLin3(0,2,2):  105 y(2,0,2) + v(0,2,2) - u(0,2,2) <= 105
MCLin4(0,2,2):  105 y(2,0,2) - u(0,2,2) >= -0
MCLin5(0,2,2):  -115 y(2,0,2) + v(0,2,2) - u(0,2,2) >= -115
MCLin6(2,0,2):  u(2,0,2) >= -0
MCLin7(2,0,2):  -113 y(0,2,2) - u(2,0,2) <= -0
MCLin8(2,0,2):  107 y(0,2,2) + v(2,0,2) - u(2,0,2) <= 107
MCLin9(2,0,2):  107 y(0,2,2) - u(2,0,2) >= -0
MCLin10(2,0,2):  -113 y(0,2,2) + v(2,0,2) - u(2,0,2) >= -113
MCLinV(0,2,3):  x(0,3) - v(0,2,3) - x(2,3) = 7
MCLinV(2,0,3):  - x(0,3) - v(2,0,3) + x(2,3) = 5
MCLin1(0,2,3):  u(0,2,3) >= -0
MCLin2(0,2,3):  -107 y(2,0,3) - u(0,2,3) <= -0
MCLin3(0,2,3):  113 y(2,0,3) + v(0,2,3) - u(0,2,3) <= 113
MCLin4(0,2,3):  113 y(2,0,3) - u(0,2,3) >= -0
MCLin5(0,2,3):  -107 y(2,0,3) + v(0,2,3) - u(0,2,3) >= -107
MCLin6(2,0,3):  u(2,0,3) >= -0
MCLin7(2,0,3):  -125 y(0,2,3) - u(2,0,3) <= -0
MCLin8(2,0,3):  95 y(0,2,3) + v(2,0,3) - u(2,0,3) <= 95
MCLin9(2,0,3):  95 y(0,2,3) - u(2,0,3) >= -0
MCLin10(2,0,3):  -125 y(0,2,3) + v(2,0,3) - u(2,0,3) >= -125
MCLinV(0,3,0):  x(0,0) - v(0,3,0) - x(3,0) = 3
MCLinV(3,0,0):  - x(0,0) - v(3,0,0) + x(3,0) = 4
MCLin1(0,3,0):  u(0,3,0) >= -0
MCLin2(0,3,0):  -107 y(3,0,0) - u(0,3,0) <= -0
MCLin3(0,3,0):  116 y(3,0,0) + v(0,3,0) - u(0,3,0) <= 116
MCLin4(0,3,0):  116 y(3,0,0) - u(0,3,0) >= -0
MCLin5(0,3,0):  -107 y(3,0,0) + v(0,3,0) - u(0,3,0) >= -107
MCLin6(3,0,0):  u(3,0,0) >= -0
MCLin7(3,0,0):  -123 y(0,3,0) - u(3,0,0) <= -0
MCLin8(3,0,0):  100 y(0,3,0) + v(3,0,0) - u(3,0,0) <= 100
MCLin9(3,0,0):  100 y(0,3,0) - u(3,0,0) >= -0
MCLin10(3,0,0):  -123 y(0,3,0) + v(3,0,0) - u(3,0,0) >= -123
MCLinV(0,3,1):  x(0,1) - v(0,3,1) - x(3,1) = 9
MCLinV(3,0,1):  - x(0,1) - v(3,0,1) + x(3,1) = 4
MCLin1(0,3,1):  u(0,3,1) >= -0
MCLin2(0,3,1):  -122 y(3,0,1) - u(0,3,1) <= -0
MCLin3(0,3,1):  101 y(3,0,1) + v(0,3,1) - u(0,3,1) <= 101
MCLin4(0,3,1):  101 y(3,0,1) - u(0,3,1) >= -0
MCLin5(0,3,1):  -122 y(3,0,1) + v(0,3,1) - u(0,3,1) >= -122
MCLin6(3,0,1):  u(3,0,1) >= -0
MCLin7(3,0,1):  -114 y(0,3,1) - u(3,0,1) <= -0
MCLin8(3,0,1):  109 y(0,3,1) + v(3,0,1) - u(3,0,1) <= 109
MCLin9(3,0,1):  109 y(0,3,1) - u(3,0,1) >= -0
MCLin10(3,0,1):  -114 y(0,3,1) + v(3,0,1) - u(3,0,1) >= -114
MCLinV(0,3,2):  x(0,2) - v(0,3,2) - x(3,2) = 6
MCLinV(3,0,2):  - x(0,2) - v(3,0,2) + x(3,2) = 2
MCLin1(0,3,2):  u(0,3,2) >= -0
MCLin2(0,3,2):  -111 y(3,0,2) - u(0,3,2) <= -0
MCLin3(0,3,2):  112 y(3,0,2) + v(0,3,2) - u(0,3,2) <= 112
MCLin4(0,3,2):  112 y(3,0,2) - u(0,3,2) >= -0
MCLin5(0,3,2):  -111 y(3,0,2) + v(0,3,2) - u(0,3,2) >= -111
MCLin6(3,0,2):  u(3,0,2) >= -0
MCLin7(3,0,2):  -120 y(0,3,2) - u(3,0,2) <= -0
MCLin8(3,0,2):  103 y(0,3,2) + v(3,0,2) - u(3,0,2) <= 103
MCLin9(3,0,2):  103 y(0,3,2) - u(3,0,2) >= -0
MCLin10(3,0,2):  -120 y(0,3,2) + v(3,0,2) - u(3,0,2) >= -120
MCLinV(0,3,3):  x(0,3) - v(0,3,3) - x(3,3) = 10
MCLinV(3,0,3):  - x(0,3) - v(3,0,3) + x(3,3) = 5
MCLin1(0,3,3):  u(0,3,3) >= -0
MCLin2(0,3,3):  -122 y(3,0,3) - u(0,3,3) <= -0
MCLin3(0,3,3):  101 y(3,0,3) + v(0,3,3) - u(0,3,3) <= 101
MCLin4(0,3,3):  101 y(3,0,3) - u(0,3,3) >= -0
MCLin5(0,3,3):  -122 y(3,0,3) + v(0,3,3) - u(0,3,3) >= -122
MCLin6(3,0,3):  u(3,0,3) >= -0
MCLin7(3,0,3):  -116 y(0,3,3) - u(3,0,3) <= -0
MCLin8(3,0,3):  107 y(0,3,3) + v(3,0,3) - u(3,0,3) <= 107
MCLin9(3,0,3):  107 y(0,3,3) - u(3,0,3) >= -0
MCLin10(3,0,3):  -116 y(0,3,3) + v(3,0,3) - u(3,0,3) >= -116
MCLinV(0,4,0):  x(0,0) - v(0,4,0) - x(4,0) = 6
MCLinV(4,0,0):  - x(0,0) - v(4,0,0) + x(4,0) = 4
MCLin1(0,4,0):  u(0,4,0) >= -0
MCLin2(0,4,0):  -126 y(4,0,0) - u(0,4,0) <= -0
MCLin3(0,4,0):  95 y(4,0,0) + v(0,4,0) - u(0,4,0) <= 95
MCLin4(0,4,0):  95 y(4,0,0) - u(0,4,0) >= -0
MCLin5(0,4,0):  -126 y(4,0,0) + v(0,4,0) - u(0,4,0) >= -126
MCLin6(4,0,0):  u(4,0,0) >= -0
MCLin7(4,0,0):  -105 y(0,4,0) - u(4,0,0) <= -0
MCLin8(4,0,0):  116 y(0,4,0) + v(4,0,0) - u(4,0,0) <= 116
MCLin9(4,0,0):  116 y(0,4,0) - u(4,0,0) >= -0
MCLin10(4,0,0):  -105 y(0,4,0) + v(4,0,0) - u(4,0,0) >= -105
MCLinV(0,4,1):  x(0,1) - v(0,4,1) - x(4,1) = 9
MCLinV(4,0,1):  - x(0,1) - v(4,0,1) + x(4,1) = 4
MCLin1(0,4,1):  u(0,4,1) >= -0
MCLin2(0,4,1):  -101 y(4,0,1) - u(0,4,1) <= -0
MCLin3(0,4,1):  120 y(4,0,1) + v(0,4,1) - u(0,4,1) <= 120
MCLin4(0,4,1):  120 y(4,0,1) - u(0,4,1) >= -0
MCLin5(0,4,1):  -101 y(4,0,1) + v(0,4,1) - u(0,4,1) >= -101
MCLin6(4,0,1):  u(4,0,1) >= -0
MCLin7(4,0,1):  -133 y(0,4,1) - u(4,0,1) <= -0
MCLin8(4,0,1):  88 y(0,4,1) + v(4,0,1) - u(4,0,1) <= 88
MCLin9(4,0,1):  88 y(0,4,1) - u(4,0,1) >= -0
MCLin10(4,0,1):  -133 y(0,4,1) + v(4,0,1) - u(4,0,1) >= -133
MCLinV(0,4,2):  x(0,2) - v(0,4,2) - x(4,2) = 8
MCLinV(4,0,2):  - x(0,2) - v(4,0,2) + x(4,2) = 2
MCLin1(0,4,2):  u(0,4,2) >= -0
MCLin2(0,4,2):  -120 y(4,0,2) - u(0,4,2) <= -0
MCLin3(0,4,2):  101 y(4,0,2) + v(0,4,2) - u(0,4,2) <= 101
MCLin4(0,4,2):  101 y(4,0,2) - u(0,4,2) >= -0
MCLin5(0,4,2):  -120 y(4,0,2) + v(0,4,2) - u(0,4,2) >= -120
MCLin6(4,0,2):  u(4,0,2) >= -0
MCLin7(4,0,2):  -111 y(0,4,2) - u(4,0,2) <= -0
MCLin8(4,0,2):  110 y(0,4,2) + v(4,0,2) - u(4,0,2) <= 110
MCLin9(4,0,2):  110 y(0,4,2) - u(4,0,2) >= -0
MCLin10(4,0,2):  -111 y(0,4,2) + v(4,0,2) - u(4,0,2) >= -111
MCLinV(0,4,3):  x(0,3) - v(0,4,3) - x(4,3) = 7
MCLinV(4,0,3):  - x(0,3) - v(4,0,3) + x(4,3) = 5
MCLin1(0,4,3):  u(0,4,3) >= -0
MCLin2(0,4,3):  -125 y(4,0,3) - u(0,4,3) <= -0
MCLin3(0,4,3):  96 y(4,0,3) + v(0,4,3) - u(0,4,3) <= 96
MCLin4(0,4,3):  96 y(4,0,3) - u(0,4,3) >= -0
MCLin5(0,4,3):  -125 y(4,0,3) + v(0,4,3) - u(0,4,3) >= -125
MCLin6(4,0,3):  u(4,0,3) >= -0
MCLin7(4,0,3):  -108 y(0,4,3) - u(4,0,3) <= -0
MCLin8(4,0,3):  113 y(0,4,3) + v(4,0,3) - u(4,0,3) <= 113
MCLin9(4,0,3):  113 y(0,4,3) - u(4,0,3) >= -0
MCLin10(4,0,3):  -108 y(0,4,3) + v(4,0,3) - u(4,0,3) >= -108
MCLinV(1,2,0):  x(1,0) - v(1,2,0) - x(2,0) = 9
MCLinV(2,1,0):  - x(1,0) - v(2,1,0) + x(2,0) = 9
MCLin1(1,2,0):  u(1,2,0) >= -0
MCLin2(1,2,0):  -104 y(2,1,0) - u(1,2,0) <= -0
MCLin3(1,2,0):  102 y(2,1,0) + v(1,2,0) - u(1,2,0) <= 102
MCLin4(1,2,0):  102 y(2,1,0) - u(1,2,0) >= -0
MCLin5(1,2,0):  -104 y(2,1,0) + v(1,2,0) - u(1,2,0) >= -104
MCLin6(2,1,0):  u(2,1,0) >= -0
MCLin7(2,1,0):  -120 y(1,2,0) - u(2,1,0) <= -0
MCLin8(2,1,0):  86 y(1,2,0) + v(2,1,0) - u(2,1,0) <= 86
MCLin9(2,1,0):  86 y(1,2,0) - u(2,1,0) >= -0
MCLin10(2,1,0):  -120 y(1,2,0) + v(2,1,0) - u(2,1,0) >= -120
MCLinV(1,2,1):  x(1,1) - v(1,2,1) - x(2,1) = 9
MCLinV(2,1,1):  - x(1,1) - v(2,1,1) + x(2,1) = 9
MCLin1(1,2,1):  u(1,2,1) >= -0
MCLin2(1,2,1):  -122 y(2,1,1) - u(1,2,1) <= -0
MCLin3(1,2,1):  84 y(2,1,1) + v(1,2,1) - u(1,2,1) <= 84
MCLin4(1,2,1):  84 y(2,1,1) - u(1,2,1) >= -0
MCLin5(1,2,1):  -122 y(2,1,1) + v(1,2,1) - u(1,2,1) >= -122
MCLin6(2,1,1):  u(2,1,1) >= -0
MCLin7(2,1,1):  -102 y(1,2,1) - u(2,1,1) <= -0
MCLin8(2,1,1):  104 y(1,2,1) + v(2,1,1) - u(2,1,1) <= 104
MCLin9(2,1,1):  104 y(1,2,1) - u(2,1,1) >= -0
MCLin10(2,1,1):  -102 y(1,2,1) + v(2,1,1) - u(2,1,1) >= -102
MCLinV(1,2,2):  x(1,2) - v(1,2,2) - x(2,2) = 6
MCLinV(2,1,2):  - x(1,2) - v(2,1,2) + x(2,2) = 3
MCLin1(1,2,2):  u(1,2,2) >= -0
MCLin2(1,2,2):  -107 y(2,1,2) - u(1,2,2) <= -0
MCLin3(1,2,2):  99 y(2,1,2) + v(1,2,2) - u(1,2,2) <= 99
MCLin4(1,2,2):  99 y(2,1,2) - u(1,2,2) >= -0
MCLin5(1,2,2):  -107 y(2,1,2) + v(1,2,2) - u(1,2,2) >= -107
MCLin6(2,1,2):  u(2,1,2) >= -0
MCLin7(2,1,2):  -108 y(1,2,2) - u(2,1,2) <= -0
MCLin8(2,1,2):  98 y(1,2,2) + v(2,1,2) - u(2,1,2) <= 98
MCLin9(2,1,2):  98 y(1,2,2) - u(2,1,2) >= -0
MCLin10(2,1,2):  -108 y(1,2,2) + v(2,1,2) - u(2,1,2) >= -108
MCLinV(1,2,3):  x(1,3) - v(1,2,3) - x(2,3) = 7
MCLinV(2,1,3):  - x(1,3) - v(2,1,3) + x(2,3) = 8
MCLin1(1,2,3):  u(1,2,3) >= -0
MCLin2(1,2,3):  -109 y(2,1,3) - u(1,2,3) <= -0
MCLin3(1,2,3):  97 y(2,1,3) + v(1,2,3) - u(1,2,3) <= 97
MCLin4(1,2,3):  97 y(2,1,3) - u(1,2,3) >= -0
MCLin5(1,2,3):  -109 y(2,1,3) + v(1,2,3) - u(1,2,3) >= -109
MCLin6(2,1,3):  u(2,1,3) >= -0
MCLin7(2,1,3):  -112 y(1,2,3) - u(2,1,3) <= -0
MCLin8(2,1,3):  94 y(1,2,3) + v(2,1,3) - u(2,1,3) <= 94
MCLin9(2,1,3):  94 y(1,2,3) - u(2,1,3) >= -0
MCLin10(2,1,3):  -112 y(1,2,3) + v(2,1,3) - u(2,1,3) >= -112
MCLinV(1,3,0):  x(1,0) - v(1,3,0) - x(3,0) = 3
MCLinV(3,1,0):  - x(1,0) - v(3,1,0) + x(3,0) = 9
MCLin1(1,3,0):  u(1,3,0) >= -0
MCLin2(1,3,0):  -94 y(3,1,0) - u(1,3,0) <= -0
MCLin3(1,3,0):  115 y(3,1,0) + v(1,3,0) - u(1,3,0) <= 115
MCLin4(1,3,0):  115 y(3,1,0) - u(1,3,0) >= -0
MCLin5(1,3,0):  -94 y(3,1,0) + v(1,3,0) - u(1,3,0) >= -94
MCLin6(3,1,0):  u(3,1,0) >= -0
MCLin7(3,1,0):  -127 y(1,3,0) - u(3,1,0) <= -0
MCLin8(3,1,0):  82 y(1,3,0) + v(3,1,0) - u(3,1,0) <= 82
MCLin9(3,1,0):  82 y(1,3,0) - u(3,1,0) >= -0
MCLin10(3,1,0):  -127 y(1,3,0) + v(3,1,0) - u(3,1,0) >= -127
MCLinV(1,3,1):  x(1,1) - v(1,3,1) - x(3,1) = 9
MCLinV(3,1,1):  - x(1,1) - v(3,1,1) + x(3,1) = 9
MCLin1(1,3,1):  u(1,3,1) >= -0
MCLin2(1,3,1):  -122 y(3,1,1) - u(1,3,1) <= -0
MCLin3(1,3,1):  87 y(3,1,1) + v(1,3,1) - u(1,3,1) <= 87
MCLin4(1,3,1):  87 y(3,1,1) - u(1,3,1) >= -0
MCLin5(1,3,1):  -122 y(3,1,1) + v(1,3,1) - u(1,3,1) >= -122
MCLin6(3,1,1):  u(3,1,1) >= -0
MCLin7(3,1,1):  -105 y(1,3,1) - u(3,1,1) <= -0
MCLin8(3,1,1):  104 y(1,3,1) + v(3,1,1) - u(3,1,1) <= 104
MCLin9(3,1,1):  104 y(1,3,1) - u(3,1,1) >= -0
MCLin10(3,1,1):  -105 y(1,3,1) + v(3,1,1) - u(3,1,1) >= -105
MCLinV(1,3,2):  x(1,2) - v(1,3,2) - x(3,2) = 6
MCLinV(3,1,2):  - x(1,2) - v(3,1,2) + x(3,2) = 3
MCLin1(1,3,2):  u(1,3,2) >= -0
MCLin2(1,3,2):  -103 y(3,1,2) - u(1,3,2) <= -0
MCLin3(1,3,2):  106 y(3,1,2) + v(1,3,2) - u(1,3,2) <= 106
MCLin4(1,3,2):  106 y(3,1,2) - u(1,3,2) >= -0
MCLin5(1,3,2):  -103 y(3,1,2) + v(1,3,2) - u(1,3,2) >= -103
MCLin6(3,1,2):  u(3,1,2) >= -0
MCLin7(3,1,2):  -115 y(1,3,2) - u(3,1,2) <= -0
MCLin8(3,1,2):  94 y(1,3,2) + v(3,1,2) - u(3,1,2) <= 94
MCLin9(3,1,2):  94 y(1,3,2) - u(3,1,2) >= -0
MCLin10(3,1,2):  -115 y(1,3,2) + v(3,1,2) - u(3,1,2) >= -115
MCLinV(1,3,3):  x(1,3) - v(1,3,3) - x(3,3) = 10
MCLinV(3,1,3):  - x(1,3) - v(3,1,3) + x(3,3) = 8
MCLin1(1,3,3):  u(1,3,3) >= -0
MCLin2(1,3,3):  -124 y(3,1,3) - u(1,3,3) <= -0
MCLin3(1,3,3):  85 y(3,1,3) + v(1,3,3) - u(1,3,3) <= 85
MCLin4(1,3,3):  85 y(3,1,3) - u(1,3,3) >= -0
MCLin5(1,3,3):  -124 y(3,1,3) + v(1,3,3) - u(1,3,3) >= -124
MCLin6(3,1,3):  u(3,1,3) >= -0
MCLin7(3,1,3):  -103 y(1,3,3) - u(3,1,3) <= -0
MCLin8(3,1,3):  106 y(1,3,3) + v(3,1,3) - u(3,1,3) <= 106
MCLin9(3,1,3):  106 y(1,3,3) - u(3,1,3) >= -0
MCLin10(3,1,3):  -103 y(1,3,3) + v(3,1,3) - u(3,1,3) >= -103
MCLinV(1,4,0):  x(1,0) - v(1,4,0) - x(4,0) = 6
MCLinV(4,1,0):  - x(1,0) - v(4,1,0) + x(4,0) = 9
MCLin1(1,4,0):  u(1,4,0) >= -0
MCLin2(1,4,0):  -113 y(4,1,0) - u(1,4,0) <= -0
MCLin3(1,4,0):  94 y(4,1,0) + v(1,4,0) - u(1,4,0) <= 94
MCLin4(1,4,0):  94 y(4,1,0) - u(1,4,0) >= -0
MCLin5(1,4,0):  -113 y(4,1,0) + v(1,4,0) - u(1,4,0) >= -113
MCLin6(4,1,0):  u(4,1,0) >= -0
MCLin7(4,1,0):  -109 y(1,4,0) - u(4,1,0) <= -0
MCLin8(4,1,0):  98 y(1,4,0) + v(4,1,0) - u(4,1,0) <= 98
MCLin9(4,1,0):  98 y(1,4,0) - u(4,1,0) >= -0
MCLin10(4,1,0):  -109 y(1,4,0) + v(4,1,0) - u(4,1,0) >= -109
MCLinV(1,4,1):  x(1,1) - v(1,4,1) - x(4,1) = 9
MCLinV(4,1,1):  - x(1,1) - v(4,1,1) + x(4,1) = 9
MCLin1(1,4,1):  u(1,4,1) >= -0
MCLin2(1,4,1):  -101 y(4,1,1) - u(1,4,1) <= -0
MCLin3(1,4,1):  106 y(4,1,1) + v(1,4,1) - u(1,4,1) <= 106
MCLin4(1,4,1):  106 y(4,1,1) - u(1,4,1) >= -0
MCLin5(1,4,1):  -101 y(4,1,1) + v(1,4,1) - u(1,4,1) >= -101
MCLin6(4,1,1):  u(4,1,1) >= -0
MCLin7(4,1,1):  -124 y(1,4,1) - u(4,1,1) <= -0
MCLin8(4,1,1):  83 y(1,4,1) + v(4,1,1) - u(4,1,1) <= 83
MCLin9(4,1,1):  83 y(1,4,1) - u(4,1,1) >= -0
MCLin10(4,1,1):  -124 y(1,4,1) + v(4,1,1) - u(4,1,1) >= -124
MCLinV(1,4,2):  x(1,2) - v(1,4,2) - x(4,2) = 8
MCLinV(4,1,2):  - x(1,2) - v(4,1,2) + x(4,2) = 3
MCLin1(1,4,2):  u(1,4,2) >= -0
MCLin2(1,4,2):  -112 y(4,1,2) - u(1,4,2) <= -0
MCLin3(1,4,2):  95 y(4,1,2) + v(1,4,2) - u(1,4,2) <= 95
MCLin4(1,4,2):  95 y(4,1,2) - u(1,4,2) >= -0
MCLin5(1,4,2):  -112 y(4,1,2) + v(1,4,2) - u(1,4,2) >= -112
MCLin6(4,1,2):  u(4,1,2) >= -0
MCLin7(4,1,2):  -106 y(1,4,2) - u(4,1,2) <= -0
MCLin8(4,1,2):  101 y(1,4,2) + v(4,1,2) - u(4,1,2) <= 101
MCLin9(4,1,2):  101 y(1,4,2) - u(4,1,2) >= -0
MCLin10(4,1,2):  -106 y(1,4,2) + v(4,1,2) - u(4,1,2) >= -106
MCLinV(1,4,3):  x(1,3) - v(1,4,3) - x(4,3) = 7
MCLinV(4,1,3):  - x(1,3) - v(4,1,3) + x(4,3) = 8
MCLin1(1,4,3):  u(1,4,3) >= -0
MCLin2(1,4,3):  -127 y(4,1,3) - u(1,4,3) <= -0
MCLin3(1,4,3):  80 y(4,1,3) + v(1,4,3) - u(1,4,3) <= 80
MCLin4(1,4,3):  80 y(4,1,3) - u(1,4,3) >= -0
MCLin5(1,4,3):  -127 y(4,1,3) + v(1,4,3) - u(1,4,3) >= -127
MCLin6(4,1,3):  u(4,1,3) >= -0
MCLin7(4,1,3):  -95 y(1,4,3) - u(4,1,3) <= -0
MCLin8(4,1,3):  112 y(1,4,3) + v(4,1,3) - u(4,1,3) <= 112
MCLin9(4,1,3):  112 y(1,4,3) - u(4,1,3) >= -0
MCLin10(4,1,3):  -95 y(1,4,3) + v(4,1,3) - u(4,1,3) >= -95
MCLinV(2,3,0):  x(2,0) - v(2,3,0) - x(3,0) = 3
MCLinV(3,2,0):  - x(2,0) - v(3,2,0) + x(3,0) = 9
MCLin1(2,3,0):  u(2,3,0) >= -0
MCLin2(2,3,0):  -101 y(3,2,0) - u(2,3,0) <= -0
MCLin3(2,3,0):  106 y(3,2,0) + v(2,3,0) - u(2,3,0) <= 106
MCLin4(2,3,0):  106 y(3,2,0) - u(2,3,0) >= -0
MCLin5(2,3,0):  -101 y(3,2,0) + v(2,3,0) - u(2,3,0) >= -101
MCLin6(3,2,0):  u(3,2,0) >= -0
MCLin7(3,2,0):  -118 y(2,3,0) - u(3,2,0) <= -0
MCLin8(3,2,0):  89 y(2,3,0) + v(3,2,0) - u(3,2,0) <= 89
MCLin9(3,2,0):  89 y(2,3,0) - u(3,2,0) >= -0
MCLin10(3,2,0):  -118 y(2,3,0) + v(3,2,0) - u(3,2,0) >= -118
MCLinV(2,3,1):  x(2,1) - v(2,3,1) - x(3,1) = 9
MCLinV(3,2,1):  - x(2,1) - v(3,2,1) + x(3,1) = 9
MCLin1(2,3,1):  u(2,3,1) >= -0
MCLin2(2,3,1):  -111 y(3,2,1) - u(2,3,1) <= -0
MCLin3(2,3,1):  96 y(3,2,1) + v(2,3,1) - u(2,3,1) <= 96
MCLin4(2,3,1):  96 y(3,2,1) - u(2,3,1) >= -0
MCLin5(2,3,1):  -111 y(3,2,1) + v(2,3,1) - u(2,3,1) >= -111
MCLin6(3,2,1):  u(3,2,1) >= -0
MCLin7(3,2,1):  -114 y(2,3,1) - u(3,2,1) <= -0
MCLin8(3,2,1):  93 y(2,3,1) + v(3,2,1) - u(3,2,1) <= 93
MCLin9(3,2,1):  93 y(2,3,1) - u(3,2,1) >= -0
MCLin10(3,2,1):  -114 y(2,3,1) + v(3,2,1) - u(3,2,1) >= -114
MCLinV(2,3,2):  x(2,2) - v(2,3,2) - x(3,2) = 6
MCLinV(3,2,2):  - x(2,2) - v(3,2,2) + x(3,2) = 6
MCLin1(2,3,2):  u(2,3,2) >= -0
MCLin2(2,3,2):  -104 y(3,2,2) - u(2,3,2) <= -0
MCLin3(2,3,2):  103 y(3,2,2) + v(2,3,2) - u(2,3,2) <= 103
MCLin4(2,3,2):  103 y(3,2,2) - u(2,3,2) >= -0
MCLin5(2,3,2):  -104 y(3,2,2) + v(2,3,2) - u(2,3,2) >= -104
MCLin6(3,2,2):  u(3,2,2) >= -0
MCLin7(3,2,2):  -115 y(2,3,2) - u(3,2,2) <= -0
MCLin8(3,2,2):  92 y(2,3,2) + v(3,2,2) - u(3,2,2) <= 92
MCLin9(3,2,2):  92 y(2,3,2) - u(3,2,2) >= -0
MCLin10(3,2,2):  -115 y(2,3,2) + v(3,2,2) - u(3,2,2) >= -115
MCLinV(2,3,3):  x(2,3) - v(2,3,3) - x(3,3) = 10
MCLinV(3,2,3):  - x(2,3) - v(3,2,3) + x(3,3) = 7
MCLin1(2,3,3):  u(2,3,3) >= -0
MCLin2(2,3,3):  -124 y(3,2,3) - u(2,3,3) <= -0
MCLin3(2,3,3):  83 y(3,2,3) + v(2,3,3) - u(2,3,3) <= 83
MCLin4(2,3,3):  83 y(3,2,3) - u(2,3,3) >= -0
MCLin5(2,3,3):  -124 y(3,2,3) + v(2,3,3) - u(2,3,3) >= -124
MCLin6(3,2,3):  u(3,2,3) >= -0
MCLin7(3,2,3):  -100 y(2,3,3) - u(3,2,3) <= -0
MCLin8(3,2,3):  107 y(2,3,3) + v(3,2,3) - u(3,2,3) <= 107
MCLin9(3,2,3):  107 y(2,3,3) - u(3,2,3) >= -0
MCLin10(3,2,3):  -100 y(2,3,3) + v(3,2,3) - u(3,2,3) >= -100
MCLinV(2,4,0):  x(2,0) - v(2,4,0) - x(4,0) = 6
MCLinV(4,2,0):  - x(2,0) - v(4,2,0) + x(4,0) = 9
MCLin1(2,4,0):  u(2,4,0) >= -0
MCLin2(2,4,0):  -120 y(4,2,0) - u(2,4,0) <= -0
MCLin3(2,4,0):  85 y(4,2,0) + v(2,4,0) - u(2,4,0) <= 85
MCLin4(2,4,0):  85 y(4,2,0) - u(2,4,0) >= -0
MCLin5(2,4,0):  -120 y(4,2,0) + v(2,4,0) - u(2,4,0) >= -120
MCLin6(4,2,0):  u(4,2,0) >= -0
MCLin7(4,2,0):  -100 y(2,4,0) - u(4,2,0) <= -0
MCLin8(4,2,0):  105 y(2,4,0) + v(4,2,0) - u(4,2,0) <= 105
MCLin9(4,2,0):  105 y(2,4,0) - u(4,2,0) >= -0
MCLin10(4,2,0):  -100 y(2,4,0) + v(4,2,0) - u(4,2,0) >= -100
MCLinV(2,4,1):  x(2,1) - v(2,4,1) - x(4,1) = 9
MCLinV(4,2,1):  - x(2,1) - v(4,2,1) + x(4,1) = 9
MCLin1(2,4,1):  u(2,4,1) >= -0
MCLin2(2,4,1):  -90 y(4,2,1) - u(2,4,1) <= -0
MCLin3(2,4,1):  115 y(4,2,1) + v(2,4,1) - u(2,4,1) <= 115
MCLin4(2,4,1):  115 y(4,2,1) - u(2,4,1) >= -0
MCLin5(2,4,1):  -90 y(4,2,1) + v(2,4,1) - u(2,4,1) >= -90
MCLin6(4,2,1):  u(4,2,1) >= -0
MCLin7(4,2,1):  -133 y(2,4,1) - u(4,2,1) <= -0
MCLin8(4,2,1):  72 y(2,4,1) + v(4,2,1) - u(4,2,1) <= 72
MCLin9(4,2,1):  72 y(2,4,1) - u(4,2,1) >= -0
MCLin10(4,2,1):  -133 y(2,4,1) + v(4,2,1) - u(4,2,1) >= -133
MCLinV(2,4,2):  x(2,2) - v(2,4,2) - x(4,2) = 8
MCLinV(4,2,2):  - x(2,2) - v(4,2,2) + x(4,2) = 6
MCLin1(2,4,2):  u(2,4,2) >= -0
MCLin2(2,4,2):  -113 y(4,2,2) - u(2,4,2) <= -0
MCLin3(2,4,2):  92 y(4,2,2) + v(2,4,2) - u(2,4,2) <= 92
MCLin4(2,4,2):  92 y(4,2,2) - u(2,4,2) >= -0
MCLin5(2,4,2):  -113 y(4,2,2) + v(2,4,2) - u(2,4,2) >= -113
MCLin6(4,2,2):  u(4,2,2) >= -0
MCLin7(4,2,2):  -106 y(2,4,2) - u(4,2,2) <= -0
MCLin8(4,2,2):  99 y(2,4,2) + v(4,2,2) - u(4,2,2) <= 99
MCLin9(4,2,2):  99 y(2,4,2) - u(4,2,2) >= -0
MCLin10(4,2,2):  -106 y(2,4,2) + v(4,2,2) - u(4,2,2) >= -106
MCLinV(2,4,3):  x(2,3) - v(2,4,3) - x(4,3) = 7
MCLinV(4,2,3):  - x(2,3) - v(4,2,3) + x(4,3) = 7
MCLin1(2,4,3):  u(2,4,3) >= -0
MCLin2(2,4,3):  -127 y(4,2,3) - u(2,4,3) <= -0
MCLin3(2,4,3):  78 y(4,2,3) + v(2,4,3) - u(2,4,3) <= 78
MCLin4(2,4,3):  78 y(4,2,3) - u(2,4,3) >= -0
MCLin5(2,4,3):  -127 y(4,2,3) + v(2,4,3) - u(2,4,3) >= -127
MCLin6(4,2,3):  u(4,2,3) >= -0
MCLin7(4,2,3):  -92 y(2,4,3) - u(4,2,3) <= -0
MCLin8(4,2,3):  113 y(2,4,3) + v(4,2,3) - u(4,2,3) <= 113
MCLin9(4,2,3):  113 y(2,4,3) - u(4,2,3) >= -0
MCLin10(4,2,3):  -92 y(2,4,3) + v(4,2,3) - u(4,2,3) >= -92
MCLinV(3,4,0):  x(3,0) - v(3,4,0) - x(4,0) = 6
MCLinV(4,3,0):  - x(3,0) - v(4,3,0) + x(4,0) = 3
MCLin1(3,4,0):  u(3,4,0) >= -0
MCLin2(3,4,0):  -127 y(4,3,0) - u(3,4,0) <= -0
MCLin3(3,4,0):  81 y(4,3,0) + v(3,4,0) - u(3,4,0) <= 81
MCLin4(3,4,0):  81 y(4,3,0) - u(3,4,0) >= -0
MCLin5(3,4,0):  -127 y(4,3,0) + v(3,4,0) - u(3,4,0) >= -127
MCLin6(4,3,0):  u(4,3,0) >= -0
MCLin7(4,3,0):  -90 y(3,4,0) - u(4,3,0) <= -0
MCLin8(4,3,0):  118 y(3,4,0) + v(4,3,0) - u(4,3,0) <= 118
MCLin9(4,3,0):  118 y(3,4,0) - u(4,3,0) >= -0
MCLin10(4,3,0):  -90 y(3,4,0) + v(4,3,0) - u(4,3,0) >= -90
MCLinV(3,4,1):  x(3,1) - v(3,4,1) - x(4,1) = 9
MCLinV(4,3,1):  - x(3,1) - v(4,3,1) + x(4,1) = 9
MCLin1(3,4,1):  u(3,4,1) >= -0
MCLin2(3,4,1):  -93 y(4,3,1) - u(3,4,1) <= -0
MCLin3(3,4,1):  115 y(4,3,1) + v(3,4,1) - u(3,4,1) <= 115
MCLin4(3,4,1):  115 y(4,3,1) - u(3,4,1) >= -0
MCLin5(3,4,1):  -93 y(4,3,1) + v(3,4,1) - u(3,4,1) >= -93
MCLin6(4,3,1):  u(4,3,1) >= -0
MCLin7(4,3,1):  -133 y(3,4,1) - u(4,3,1) <= -0
MCLin8(4,3,1):  75 y(3,4,1) + v(4,3,1) - u(4,3,1) <= 75
MCLin9(4,3,1):  75 y(3,4,1) - u(4,3,1) >= -0
MCLin10(4,3,1):  -133 y(3,4,1) + v(4,3,1) - u(4,3,1) >= -133
MCLinV(3,4,2):  x(3,2) - v(3,4,2) - x(4,2) = 8
MCLinV(4,3,2):  - x(3,2) - v(4,3,2) + x(4,2) = 6
MCLin1(3,4,2):  u(3,4,2) >= -0
MCLin2(3,4,2):  -120 y(4,3,2) - u(3,4,2) <= -0
MCLin3(3,4,2):  88 y(4,3,2) + v(3,4,2) - u(3,4,2) <= 88
MCLin4(3,4,2):  88 y(4,3,2) - u(3,4,2) >= -0
MCLin5(3,4,2):  -120 y(4,3,2) + v(3,4,2) - u(3,4,2) >= -120
MCLin6(4,3,2):  u(4,3,2) >= -0
MCLin7(4,3,2):  -102 y(3,4,2) - u(4,3,2) <= -0
MCLin8(4,3,2):  106 y(3,4,2) + v(4,3,2) - u(4,3,2) <= 106
MCLin9(4,3,2):  106 y(3,4,2) - u(4,3,2) >= -0
MCLin10(4,3,2):  -102 y(3,4,2) + v(4,3,2) - u(4,3,2) >= -102
MCLinV(3,4,3):  x(3,3) - v(3,4,3) - x(4,3) = 7
MCLinV(4,3,3):  - x(3,3) - v(4,3,3) + x(4,3) = 10
MCLin1(3,4,3):  u(3,4,3) >= -0
MCLin2(3,4,3):  -118 y(4,3,3) - u(3,4,3) <= -0
MCLin3(3,4,3):  90 y(4,3,3) + v(3,4,3) - u(3,4,3) <= 90
MCLin4(3,4,3):  90 y(4,3,3) - u(3,4,3) >= -0
MCLin5(3,4,3):  -118 y(4,3,3) + v(3,4,3) - u(3,4,3) >= -118
MCLin6(4,3,3):  u(4,3,3) >= -0
MCLin7(4,3,3):  -107 y(3,4,3) - u(4,3,3) <= -0
MCLin8(4,3,3):  101 y(3,4,3) + v(4,3,3) - u(4,3,3) <= 101
MCLin9(4,3,3):  101 y(3,4,3) - u(4,3,3) >= -0
MCLin10(4,3,3):  -107 y(3,4,3) + v(4,3,3) - u(4,3,3) >= -107
makespan(0):  C - x(0,1) >= 4
makespan(1):  C - x(1,0) >= 9
makespan(2):  C - x(2,1) >= 9
makespan(3):  C - x(3,1) >= 9
makespan(4):  C - x(4,0) >= 6
Bounds
 0 <= C <= 133
 7 <= x(0,0) <= 125
 0 <= y(0,1,0) <= 1
 0 <= y(1,0,0) <= 1
 -126 <= v(0,1,0) <= 96
 -109 <= v(1,0,0) <= 113
 -1330 <= u(0,1,0)
 -1330 <= u(1,0,0)
 0 <= y(0,2,0) <= 1
 0 <= y(2,0,0) <= 1
 -117 <= v(0,2,0) <= 103
 -116 <= v(2,0,0) <= 104
 -1330 <= u(0,2,0)
 -1330 <= u(2,0,0)
 0 <= y(0,3,0) <= 1
 0 <= y(3,0,0) <= 1
 -107 <= v(0,3,0) <= 116
 -123 <= v(3,0,0) <= 100
 -1330 <= u(0,3,0)
 -1330 <= u(3,0,0)
 0 <= y(0,4,0) <= 1
 0 <= y(4,0,0) <= 1
 -126 <= v(0,4,0) <= 95
 -105 <= v(4,0,0) <= 116
 -1330 <= u(0,4,0)
 -1330 <= u(4,0,0)
 20 <= x(1,0) <= 124
 0 <= y(1,2,0) <= 1
 0 <= y(2,1,0) <= 1
 -104 <= v(1,2,0) <= 102
 -120 <= v(2,1,0) <= 86
 -1330 <= u(1,2,0)
 -1330 <= u(2,1,0)
 0 <= y(1,3,0) <= 1
 0 <= y(3,1,0) <= 1
 -94 <= v(1,3,0) <= 115
 -127 <= v(3,1,0) <= 82
 -1330 <= u(1,3,0)
 -1330 <= u(3,1,0)
 0 <= y(1,4,0) <= 1
 0 <= y(4,1,0) <= 1
 -113 <= v(1,4,0) <= 94
 -109 <= v(4,1,0) <= 98
 -1330 <= u(1,4,0)
 -1330 <= u(4,1,0)
 13 <= x(2,0) <= 115
 0 <= y(2,3,0) <= 1
 0 <= y(3,2,0) <= 1
 -101 <= v(2,3,0) <= 106
 -118 <= v(3,2,0) <= 89
 -1330 <= u(2,3,0)
 -1330 <= u(3,2,0)
 0 <= y(2,4,0) <= 1
 0 <= y(4,2,0) <= 1
 -120 <= v(2,4,0) <= 85
 -100 <= v(4,2,0) <= 105
 -1330 <= u(2,4,0)
 -1330 <= u(4,2,0)
 6 <= x(3,0) <= 111
 0 <= y(3,4,0) <= 1
 0 <= y(4,3,0) <= 1
 -127 <= v(3,4,0) <= 81
 -90 <= v(4,3,0) <= 118
 -1330 <= u(3,4,0)
 -1330 <= u(4,3,0)
 24 <= x(4,0) <= 127
 11 <= x(0,1) <= 129
 0 <= y(0,1,1) <= 1
 0 <= y(1,0,1) <= 1
 -113 <= v(0,1,1) <= 109
 -122 <= v(1,0,1) <= 100
 -1330 <= u(0,1,1)
 -1330 <= u(1,0,1)
 0 <= y(0,2,1) <= 1
 0 <= y(2,0,1) <= 1
 -122 <= v(0,2,1) <= 98
 -111 <= v(2,0,1) <= 109
 -1330 <= u(0,2,1)
 -1330 <= u(2,0,1)
 0 <= y(0,3,1) <= 1
 0 <= y(3,0,1) <= 1
 -122 <= v(0,3,1) <= 101
 -114 <= v(3,0,1) <= 109
 -1330 <= u(0,3,1)
 -1330 <= u(3,0,1)
 0 <= y(0,4,1) <= 1
 0 <= y(4,0,1) <= 1
 -101 <= v(0,4,1) <= 120
 -133 <= v(4,0,1) <= 88
 -1330 <= u(0,4,1)
 -1330 <= u(4,0,1)
 11 <= x(1,1) <= 115
 0 <= y(1,2,1) <= 1
 0 <= y(2,1,1) <= 1
 -122 <= v(1,2,1) <= 84
 -102 <= v(2,1,1) <= 104
 -1330 <= u(1,2,1)
 -1330 <= u(2,1,1)
 0 <= y(1,3,1) <= 1
 0 <= y(3,1,1) <= 1
 -122 <= v(1,3,1) <= 87
 -105 <= v(3,1,1) <= 104
 -1330 <= u(1,3,1)
 -1330 <= u(3,1,1)
 0 <= y(1,4,1) <= 1
 0 <= y(4,1,1) <= 1
 -101 <= v(1,4,1) <= 106
 -124 <= v(4,1,1) <= 83
 -1330 <= u(1,4,1)
 -1330 <= u(4,1,1)
 22 <= x(2,1) <= 124
 0 <= y(2,3,1) <= 1
 0 <= y(3,2,1) <= 1
 -111 <= v(2,3,1) <= 96
 -114 <= v(3,2,1) <= 93
 -1330 <= u(2,3,1)
 -1330 <= u(3,2,1)
 0 <= y(2,4,1) <= 1
 0 <= y(4,2,1) <= 1
 -90 <= v(2,4,1) <= 115
 -133 <= v(4,2,1) <= 72
 -1330 <= u(2,4,1)
 -1330 <= u(4,2,1)
 19 <= x(3,1) <= 124
 0 <= y(3,4,1) <= 1
 0 <= y(4,3,1) <= 1
 -93 <= v(3,4,1) <= 115
 -133 <= v(4,3,1) <= 75
 -1330 <= u(3,4,1)
 -1330 <= u(4,3,1)
 0 <= x(4,1) <= 103
 0 <= x(0,2) <= 118
 0 <= y(0,1,2) <= 1
 0 <= y(1,0,2) <= 1
 -115 <= v(0,1,2) <= 107
 -112 <= v(1,0,2) <= 110
 -1330 <= u(0,1,2)
 -1330 <= u(1,0,2)
 0 <= y(0,2,2) <= 1
 0 <= y(2,0,2) <= 1
 -115 <= v(0,2,2) <= 105
 -113 <= v(2,0,2) <= 107
 -1330 <= u(0,2,2)
 -1330 <= u(2,0,2)
 0 <= y(0,3,2) <= 1
 0 <= y(3,0,2) <= 1
 -111 <= v(0,3,2) <= 112
 -120 <= v(3,0,2) <= 103
 -1330 <= u(0,3,2)
 -1330 <= u(3,0,2)
 0 <= y(0,4,2) <= 1
 0 <= y(4,0,2) <= 1
 -120 <= v(0,4,2) <= 101
 -111 <= v(4,0,2) <= 110
 -1330 <= u(0,4,2)
 -1330 <= u(4,0,2)
 8 <= x(1,2) <= 112
 0 <= y(1,2,2) <= 1
 0 <= y(2,1,2) <= 1
 -107 <= v(1,2,2) <= 99
 -108 <= v(2,1,2) <= 98
 -1330 <= u(1,2,2)
 -1330 <= u(2,1,2)
 0 <= y(1,3,2) <= 1
 0 <= y(3,1,2) <= 1
 -103 <= v(1,3,2) <= 106
 -115 <= v(3,1,2) <= 94
 -1330 <= u(1,3,2)
 -1330 <= u(3,1,2)
 0 <= y(1,4,2) <= 1
 0 <= y(4,1,2) <= 1
 -112 <= v(1,4,2) <= 95
 -106 <= v(4,1,2) <= 101
 -1330 <= u(1,4,2)
 -1330 <= u(4,1,2)
 7 <= x(2,2) <= 109
 0 <= y(2,3,2) <= 1
 0 <= y(3,2,2) <= 1
 -104 <= v(2,3,2) <= 103
 -115 <= v(3,2,2) <= 92
 -1330 <= u(2,3,2)
 -1330 <= u(3,2,2)
 0 <= y(2,4,2) <= 1
 0 <= y(4,2,2) <= 1
 -113 <= v(2,4,2) <= 92
 -106 <= v(4,2,2) <= 99
 -1330 <= u(2,4,2)
 -1330 <= u(4,2,2)
 0 <= x(3,2) <= 105
 0 <= y(3,4,2) <= 1
 0 <= y(4,3,2) <= 1
 -120 <= v(3,4,2) <= 88
 -102 <= v(4,3,2) <= 106
 -1330 <= u(3,4,2)
 -1330 <= u(4,3,2)
 9 <= x(4,2) <= 112
 2 <= x(0,3) <= 120
 0 <= y(0,1,3) <= 1
 0 <= y(1,0,3) <= 1
 -110 <= v(0,1,3) <= 112
 -125 <= v(1,0,3) <= 97
 -1330 <= u(0,1,3)
 -1330 <= u(1,0,3)
 0 <= y(0,2,3) <= 1
 0 <= y(2,0,3) <= 1
 -107 <= v(0,2,3) <= 113
 -125 <= v(2,0,3) <= 95
 -1330 <= u(0,2,3)
 -1330 <= u(2,0,3)
 0 <= y(0,3,3) <= 1
 0 <= y(3,0,3) <= 1
 -122 <= v(0,3,3) <= 101
 -116 <= v(3,0,3) <= 107
 -1330 <= u(0,3,3)
 -1330 <= u(3,0,3)
 0 <= y(0,4,3) <= 1
 0 <= y(4,0,3) <= 1
 -125 <= v(0,4,3) <= 96
 -108 <= v(4,0,3) <= 113
 -1330 <= u(0,4,3)
 -1330 <= u(4,0,3)
 0 <= x(1,3) <= 104
 0 <= y(1,2,3) <= 1
 0 <= y(2,1,3) <= 1
 -109 <= v(1,2,3) <= 97
 -112 <= v(2,1,3) <= 94
 -1330 <= u(1,2,3)
 -1330 <= u(2,1,3)
 0 <= y(1,3,3) <= 1
 0 <= y(3,1,3) <= 1
 -124 <= v(1,3,3) <= 85
 -103 <= v(3,1,3) <= 106
 -1330 <= u(1,3,3)
 -1330 <= u(3,1,3)
 0 <= y(1,4,3) <= 1
 0 <= y(4,1,3) <= 1
 -127 <= v(1,4,3) <= 80
 -95 <= v(4,1,3) <= 112
 -1330 <= u(1,4,3)
 -1330 <= u(4,1,3)
 0 <= x(2,3) <= 102
 0 <= y(2,3,3) <= 1
 0 <= y(3,2,3) <= 1
 -124 <= v(2,3,3) <= 83
 -100 <= v(3,2,3) <= 107
 -1330 <= u(2,3,3)
 -1330 <= u(3,2,3)
 0 <= y(2,4,3) <= 1
 0 <= y(4,2,3) <= 1
 -127 <= v(2,4,3) <= 78
 -92 <= v(4,2,3) <= 113
 -1330 <= u(2,4,3)
 -1330 <= u(4,2,3)
 9 <= x(3,3) <= 114
 0 <= y(3,4,3) <= 1
 0 <= y(4,3,3) <= 1
 -118 <= v(3,4,3) <= 90
 -107 <= v(4,3,3) <= 101
 -1330 <= u(3,4,3)
 -1330 <= u(4,3,3)
 17 <= x(4,3) <= 120
Integers
C x(0,0) y(0,1,0) y(1,0,0) v(0,1,0) v(1,0,0) u(0,1,0) u(1,0,0) y(0,2,0) y(2,0,0) 
v(0,2,0) v(2,0,0) u(0,2,0) u(2,0,0) y(0,3,0) y(3,0,0) v(0,3,0) v(3,0,0) u(0,3,0) u(3,0,0) 
y(0,4,0) y(4,0,0) v(0,4,0) v(4,0,0) u(0,4,0) u(4,0,0) x(1,0) y(1,2,0) y(2,1,0) v(1,2,0) 
v(2,1,0) u(1,2,0) u(2,1,0) y(1,3,0) y(3,1,0) v(1,3,0) v(3,1,0) u(1,3,0) u(3,1,0) y(1,4,0) 
y(4,1,0) v(1,4,0) v(4,1,0) u(1,4,0) u(4,1,0) x(2,0) y(2,3,0) y(3,2,0) v(2,3,0) v(3,2,0) 
u(2,3,0) u(3,2,0) y(2,4,0) y(4,2,0) v(2,4,0) v(4,2,0) u(2,4,0) u(4,2,0) x(3,0) y(3,4,0) 
y(4,3,0) v(3,4,0) v(4,3,0) u(3,4,0) u(4,3,0) x(4,0) x(0,1) y(0,1,1) y(1,0,1) v(0,1,1) 
v(1,0,1) u(0,1,1) u(1,0,1) y(0,2,1) y(2,0,1) v(0,2,1) v(2,0,1) u(0,2,1) u(2,0,1) y(0,3,1) 
y(3,0,1) v(0,3,1) v(3,0,1) u(0,3,1) u(3,0,1) y(0,4,1) y(4,0,1) v(0,4,1) v(4,0,1) u(0,4,1) 
u(4,0,1) x(1,1) y(1,2,1) y(2,1,1) v(1,2,1) v(2,1,1) u(1,2,1) u(2,1,1) y(1,3,1) y(3,1,1) 
v(1,3,1) v(3,1,1) u(1,3,1) u(3,1,1) y(1,4,1) y(4,1,1) v(1,4,1) v(4,1,1) u(1,4,1) u(4,1,1) 
x(2,1) y(2,3,1) y(3,2,1) v(2,3,1) v(3,2,1) u(2,3,1) u(3,2,1) y(2,4,1) y(4,2,1) v(2,4,1) 
v(4,2,1) u(2,4,1) u(4,2,1) x(3,1) y(3,4,1) y(4,3,1) v(3,4,1) v(4,3,1) u(3,4,1) u(4,3,1) 
x(4,1) x(0,2) y(0,1,2) y(1,0,2) v(0,1,2) v(1,0,2) u(0,1,2) u(1,0,2) y(0,2,2) y(2,0,2) 
v(0,2,2) v(2,0,2) u(0,2,2) u(2,0,2) y(0,3,2) y(3,0,2) v(0,3,2) v(3,0,2) u(0,3,2) u(3,0,2) 
y(0,4,2) y(4,0,2) v(0,4,2) v(4,0,2) u(0,4,2) u(4,0,2) x(1,2) y(1,2,2) y(2,1,2) v(1,2,2) 
v(2,1,2) u(1,2,2) u(2,1,2) y(1,3,2) y(3,1,2) v(1,3,2) v(3,1,2) u(1,3,2) u(3,1,2) y(1,4,2) 
y(4,1,2) v(1,4,2) v(4,1,2) u(1,4,2) u(4,1,2) x(2,2) y(2,3,2) y(3,2,2) v(2,3,2) v(3,2,2) 
u(2,3,2) u(3,2,2) y(2,4,2) y(4,2,2) v(2,4,2) v(4,2,2) u(2,4,2) u(4,2,2) x(3,2) y(3,4,2) 
y(4,3,2) v(3,4,2) v(4,3,2) u(3,4,2) u(4,3,2) x(4,2) x(0,3) y(0,1,3) y(1,0,3) v(0,1,3) 
v(1,0,3) u(0,1,3) u(1,0,3) y(0,2,3) y(2,0,3) v(0,2,3) v(2,0,3) u(0,2,3) u(2,0,3) y(0,3,3) 
y(3,0,3) v(0,3,3) v(3,0,3) u(0,3,3) u(3,0,3) y(0,4,3) y(4,0,3) v(0,4,3) v(4,0,3) u(0,4,3) 
u(4,0,3) x(1,3) y(1,2,3) y(2,1,3) v(1,2,3) v(2,1,3) u(1,2,3) u(2,1,3) y(1,3,3) y(3,1,3) 
v(1,3,3) v(3,1,3) u(1,3,3) u(3,1,3) y(1,4,3) y(4,1,3) v(1,4,3) v(4,1,3) u(1,4,3) u(4,1,3) 
x(2,3) y(2,3,3) y(3,2,3) v(2,3,3) v(3,2,3) u(2,3,3) u(3,2,3) y(2,4,3) y(4,2,3) v(2,4,3) 
v(4,2,3) u(2,4,3) u(4,2,3) x(3,3) y(3,4,3) y(4,3,3) v(3,4,3) v(4,3,3) u(3,4,3) u(4,3,3) 
x(4,3) 
End
